NAME          COPTPROB
OBJSENSE
  MIN
ROWS
 N  __OBJ___
 L  C31     
 L  C178    
 L  C434    
 L  C499    
 L  C552    
COLUMNS
    MARKER    'MARKER'                 'INTORG'
    x123      __OBJ___  -1
    x123      C178      1
    x123      C499      1
    x161      __OBJ___  -1
    x161      C178      1
    x161      C552      1
    x203      __OBJ___  -1
    x203      C434      1
    x203      C552      1
    x222      __OBJ___  -1
    x222      C31       1
    x222      C499      1
    x288      __OBJ___  -1
    x288      C31       1
    x288      C434      1
    MARKER    'MARKER'                 'INTEND'
RHS
    RHS       __OBJ___  166
    RHS       C31       1
    RHS       C178      1
    RHS       C434      1
    RHS       C499      1
    RHS       C552      1
BOUNDS
 UP BOUND     x123      1
 UP BOUND     x161      1
 UP BOUND     x203      1
 UP BOUND     x222      1
 UP BOUND     x288      1
ENDATA
